p cnf 259 1017
132 135 136 137 138 139 0
-132 -135 0
-132 -136 0
-132 -137 0
-132 -138 0
-132 -139 0
-135 -136 0
-135 -137 0
-135 -138 0
-135 -139 0
-136 -137 0
-136 -138 0
-136 -139 0
-137 -138 0
-137 -139 0
-138 -139 0
-131 0
-133 0
-134 0
142 145 146 147 148 149 0
-142 -145 0
-142 -146 0
-142 -147 0
-142 -148 0
-142 -149 0
-145 -146 0
-145 -147 0
-145 -148 0
-145 -149 0
-146 -147 0
-146 -148 0
-146 -149 0
-147 -148 0
-147 -149 0
-148 -149 0
-141 0
-143 0
-144 0
222 225 226 227 228 229 0
-222 -225 0
-222 -226 0
-222 -227 0
-222 -228 0
-222 -229 0
-225 -226 0
-225 -227 0
-225 -228 0
-225 -229 0
-226 -227 0
-226 -228 0
-226 -229 0
-227 -228 0
-227 -229 0
-228 -229 0
-221 0
-223 0
-224 0
232 235 236 237 238 239 0
-232 -235 0
-232 -236 0
-232 -237 0
-232 -238 0
-232 -239 0
-235 -236 0
-235 -237 0
-235 -238 0
-235 -239 0
-236 -237 0
-236 -238 0
-236 -239 0
-237 -238 0
-237 -239 0
-238 -239 0
-231 0
-233 0
-234 0
172 175 176 177 178 179 0
-172 -175 0
-172 -176 0
-172 -177 0
-172 -178 0
-172 -179 0
-175 -176 0
-175 -177 0
-175 -178 0
-175 -179 0
-176 -177 0
-176 -178 0
-176 -179 0
-177 -178 0
-177 -179 0
-178 -179 0
-171 0
-173 0
-174 0
222 225 226 227 228 229 0
-222 -225 0
-222 -226 0
-222 -227 0
-222 -228 0
-222 -229 0
-225 -226 0
-225 -227 0
-225 -228 0
-225 -229 0
-226 -227 0
-226 -228 0
-226 -229 0
-227 -228 0
-227 -229 0
-228 -229 0
-221 0
-223 0
-224 0
52 55 56 57 58 59 0
-52 -55 0
-52 -56 0
-52 -57 0
-52 -58 0
-52 -59 0
-55 -56 0
-55 -57 0
-55 -58 0
-55 -59 0
-56 -57 0
-56 -58 0
-56 -59 0
-57 -58 0
-57 -59 0
-58 -59 0
-51 0
-53 0
-54 0
102 105 106 107 108 109 0
-102 -105 0
-102 -106 0
-102 -107 0
-102 -108 0
-102 -109 0
-105 -106 0
-105 -107 0
-105 -108 0
-105 -109 0
-106 -107 0
-106 -108 0
-106 -109 0
-107 -108 0
-107 -109 0
-108 -109 0
-101 0
-103 0
-104 0
202 205 206 207 208 209 0
-202 -205 0
-202 -206 0
-202 -207 0
-202 -208 0
-202 -209 0
-205 -206 0
-205 -207 0
-205 -208 0
-205 -209 0
-206 -207 0
-206 -208 0
-206 -209 0
-207 -208 0
-207 -209 0
-208 -209 0
-201 0
-203 0
-204 0
252 255 256 257 258 259 0
-252 -255 0
-252 -256 0
-252 -257 0
-252 -258 0
-252 -259 0
-255 -256 0
-255 -257 0
-255 -258 0
-255 -259 0
-256 -257 0
-256 -258 0
-256 -259 0
-257 -258 0
-257 -259 0
-258 -259 0
-251 0
-253 0
-254 0
-139 147 0
-137 149 0
-138 142 0
135 139 137 135 138 0
147 147 149 146 142 0
-229 237 0
-227 239 0
-228 232 0
225 229 227 225 228 0
237 237 239 236 232 0
-179 227 0
-177 229 0
-178 222 0
175 179 177 175 178 0
227 227 229 226 222 0
-59 107 0
-57 109 0
-58 102 0
55 59 57 55 58 0
107 107 109 106 102 0
-209 257 0
-207 259 0
-208 252 0
205 209 207 205 208 0
257 257 259 256 252 0
-135 147 146 0
-225 237 236 0
-175 227 226 0
-55 107 106 0
-205 257 256 0
-135 -147 -225 -237 0
-135 -147 -175 -227 0
-135 -147 -55 -107 0
-135 -147 -205 -257 0
-225 -237 -175 -227 0
-225 -237 -55 -107 0
-225 -237 -205 -257 0
-175 -227 -55 -107 0
-175 -227 -205 -257 0
-55 -107 -205 -257 0
-139 -147 -229 -237 0
-139 -147 -179 -227 0
-139 -147 -59 -107 0
-139 -147 -209 -257 0
-229 -237 -179 -227 0
-229 -237 -59 -107 0
-229 -237 -209 -257 0
-179 -227 -59 -107 0
-179 -227 -209 -257 0
-59 -107 -209 -257 0
-137 -149 -227 -239 0
-137 -149 -177 -229 0
-137 -149 -57 -109 0
-137 -149 -207 -259 0
-227 -239 -177 -229 0
-227 -239 -57 -109 0
-227 -239 -207 -259 0
-177 -229 -57 -109 0
-177 -229 -207 -259 0
-57 -109 -207 -259 0
-135 -146 -225 -236 0
-135 -146 -175 -226 0
-135 -146 -55 -106 0
-135 -146 -205 -256 0
-225 -236 -175 -226 0
-225 -236 -55 -106 0
-225 -236 -205 -256 0
-175 -226 -55 -106 0
-175 -226 -205 -256 0
-55 -106 -205 -256 0
-138 -142 -228 -232 0
-138 -142 -178 -222 0
-138 -142 -58 -102 0
-138 -142 -208 -252 0
-228 -232 -178 -222 0
-228 -232 -58 -102 0
-228 -232 -208 -252 0
-178 -222 -58 -102 0
-178 -222 -208 -252 0
-58 -102 -208 -252 0
32 34 35 0
-32 -34 0
-32 -35 0
-34 -35 0
-31 0
-33 0
-36 0
-37 0
-38 0
-39 0
42 44 45 0
-42 -44 0
-42 -45 0
-44 -45 0
-41 0
-43 0
-46 0
-47 0
-48 0
-49 0
52 54 55 0
-52 -54 0
-52 -55 0
-54 -55 0
-51 0
-53 0
-56 0
-57 0
-58 0
-59 0
-32 44 0
-32 55 0
32 0
44 0
55 0
11 12 13 14 15 17 19 0
-11 -12 0
-11 -13 0
-11 -14 0
-11 -15 0
-11 -17 0
-11 -19 0
-12 -13 0
-12 -14 0
-12 -15 0
-12 -17 0
-12 -19 0
-13 -14 0
-13 -15 0
-13 -17 0
-13 -19 0
-14 -15 0
-14 -17 0
-14 -19 0
-15 -17 0
-15 -19 0
-17 -19 0
-16 0
-18 0
61 62 63 64 65 67 69 0
-61 -62 0
-61 -63 0
-61 -64 0
-61 -65 0
-61 -67 0
-61 -69 0
-62 -63 0
-62 -64 0
-62 -65 0
-62 -67 0
-62 -69 0
-63 -64 0
-63 -65 0
-63 -67 0
-63 -69 0
-64 -65 0
-64 -67 0
-64 -69 0
-65 -67 0
-65 -69 0
-67 -69 0
-66 0
-68 0
111 112 113 114 115 117 119 0
-111 -112 0
-111 -113 0
-111 -114 0
-111 -115 0
-111 -117 0
-111 -119 0
-112 -113 0
-112 -114 0
-112 -115 0
-112 -117 0
-112 -119 0
-113 -114 0
-113 -115 0
-113 -117 0
-113 -119 0
-114 -115 0
-114 -117 0
-114 -119 0
-115 -117 0
-115 -119 0
-117 -119 0
-116 0
-118 0
161 162 163 164 165 167 169 0
-161 -162 0
-161 -163 0
-161 -164 0
-161 -165 0
-161 -167 0
-161 -169 0
-162 -163 0
-162 -164 0
-162 -165 0
-162 -167 0
-162 -169 0
-163 -164 0
-163 -165 0
-163 -167 0
-163 -169 0
-164 -165 0
-164 -167 0
-164 -169 0
-165 -167 0
-165 -169 0
-167 -169 0
-166 0
-168 0
41 42 43 44 45 47 49 0
-41 -42 0
-41 -43 0
-41 -44 0
-41 -45 0
-41 -47 0
-41 -49 0
-42 -43 0
-42 -44 0
-42 -45 0
-42 -47 0
-42 -49 0
-43 -44 0
-43 -45 0
-43 -47 0
-43 -49 0
-44 -45 0
-44 -47 0
-44 -49 0
-45 -47 0
-45 -49 0
-47 -49 0
-46 0
-48 0
91 92 93 94 95 97 99 0
-91 -92 0
-91 -93 0
-91 -94 0
-91 -95 0
-91 -97 0
-91 -99 0
-92 -93 0
-92 -94 0
-92 -95 0
-92 -97 0
-92 -99 0
-93 -94 0
-93 -95 0
-93 -97 0
-93 -99 0
-94 -95 0
-94 -97 0
-94 -99 0
-95 -97 0
-95 -99 0
-97 -99 0
-96 0
-98 0
141 142 143 144 145 147 149 0
-141 -142 0
-141 -143 0
-141 -144 0
-141 -145 0
-141 -147 0
-141 -149 0
-142 -143 0
-142 -144 0
-142 -145 0
-142 -147 0
-142 -149 0
-143 -144 0
-143 -145 0
-143 -147 0
-143 -149 0
-144 -145 0
-144 -147 0
-144 -149 0
-145 -147 0
-145 -149 0
-147 -149 0
-146 0
-148 0
191 192 193 194 195 197 199 0
-191 -192 0
-191 -193 0
-191 -194 0
-191 -195 0
-191 -197 0
-191 -199 0
-192 -193 0
-192 -194 0
-192 -195 0
-192 -197 0
-192 -199 0
-193 -194 0
-193 -195 0
-193 -197 0
-193 -199 0
-194 -195 0
-194 -197 0
-194 -199 0
-195 -197 0
-195 -199 0
-197 -199 0
-196 0
-198 0
-11 62 0
-11 113 0
-11 164 0
-14 65 0
-14 117 0
-14 169 0
11 14 0
62 65 0
113 117 0
164 169 0
-41 92 0
-41 143 0
-41 194 0
-44 95 0
-44 147 0
-44 199 0
41 44 0
92 95 0
143 147 0
194 199 0
-11 -62 -113 -164 -41 -92 -143 -194 0
-14 -65 -117 -169 -44 -95 -147 -199 0
62 63 64 65 66 67 68 69 0
-62 -63 0
-62 -64 0
-62 -65 0
-62 -66 0
-62 -67 0
-62 -68 0
-62 -69 0
-63 -64 0
-63 -65 0
-63 -66 0
-63 -67 0
-63 -68 0
-63 -69 0
-64 -65 0
-64 -66 0
-64 -67 0
-64 -68 0
-64 -69 0
-65 -66 0
-65 -67 0
-65 -68 0
-65 -69 0
-66 -67 0
-66 -68 0
-66 -69 0
-67 -68 0
-67 -69 0
-68 -69 0
-61 0
72 73 74 75 76 77 78 79 0
-72 -73 0
-72 -74 0
-72 -75 0
-72 -76 0
-72 -77 0
-72 -78 0
-72 -79 0
-73 -74 0
-73 -75 0
-73 -76 0
-73 -77 0
-73 -78 0
-73 -79 0
-74 -75 0
-74 -76 0
-74 -77 0
-74 -78 0
-74 -79 0
-75 -76 0
-75 -77 0
-75 -78 0
-75 -79 0
-76 -77 0
-76 -78 0
-76 -79 0
-77 -78 0
-77 -79 0
-78 -79 0
-71 0
82 83 84 85 86 87 88 89 0
-82 -83 0
-82 -84 0
-82 -85 0
-82 -86 0
-82 -87 0
-82 -88 0
-82 -89 0
-83 -84 0
-83 -85 0
-83 -86 0
-83 -87 0
-83 -88 0
-83 -89 0
-84 -85 0
-84 -86 0
-84 -87 0
-84 -88 0
-84 -89 0
-85 -86 0
-85 -87 0
-85 -88 0
-85 -89 0
-86 -87 0
-86 -88 0
-86 -89 0
-87 -88 0
-87 -89 0
-88 -89 0
-81 0
92 93 94 95 96 97 98 99 0
-92 -93 0
-92 -94 0
-92 -95 0
-92 -96 0
-92 -97 0
-92 -98 0
-92 -99 0
-93 -94 0
-93 -95 0
-93 -96 0
-93 -97 0
-93 -98 0
-93 -99 0
-94 -95 0
-94 -96 0
-94 -97 0
-94 -98 0
-94 -99 0
-95 -96 0
-95 -97 0
-95 -98 0
-95 -99 0
-96 -97 0
-96 -98 0
-96 -99 0
-97 -98 0
-97 -99 0
-98 -99 0
-91 0
102 103 104 105 106 107 108 109 0
-102 -103 0
-102 -104 0
-102 -105 0
-102 -106 0
-102 -107 0
-102 -108 0
-102 -109 0
-103 -104 0
-103 -105 0
-103 -106 0
-103 -107 0
-103 -108 0
-103 -109 0
-104 -105 0
-104 -106 0
-104 -107 0
-104 -108 0
-104 -109 0
-105 -106 0
-105 -107 0
-105 -108 0
-105 -109 0
-106 -107 0
-106 -108 0
-106 -109 0
-107 -108 0
-107 -109 0
-108 -109 0
-101 0
162 163 164 165 166 167 168 169 0
-162 -163 0
-162 -164 0
-162 -165 0
-162 -166 0
-162 -167 0
-162 -168 0
-162 -169 0
-163 -164 0
-163 -165 0
-163 -166 0
-163 -167 0
-163 -168 0
-163 -169 0
-164 -165 0
-164 -166 0
-164 -167 0
-164 -168 0
-164 -169 0
-165 -166 0
-165 -167 0
-165 -168 0
-165 -169 0
-166 -167 0
-166 -168 0
-166 -169 0
-167 -168 0
-167 -169 0
-168 -169 0
-161 0
172 173 174 175 176 177 178 179 0
-172 -173 0
-172 -174 0
-172 -175 0
-172 -176 0
-172 -177 0
-172 -178 0
-172 -179 0
-173 -174 0
-173 -175 0
-173 -176 0
-173 -177 0
-173 -178 0
-173 -179 0
-174 -175 0
-174 -176 0
-174 -177 0
-174 -178 0
-174 -179 0
-175 -176 0
-175 -177 0
-175 -178 0
-175 -179 0
-176 -177 0
-176 -178 0
-176 -179 0
-177 -178 0
-177 -179 0
-178 -179 0
-171 0
182 183 184 185 186 187 188 189 0
-182 -183 0
-182 -184 0
-182 -185 0
-182 -186 0
-182 -187 0
-182 -188 0
-182 -189 0
-183 -184 0
-183 -185 0
-183 -186 0
-183 -187 0
-183 -188 0
-183 -189 0
-184 -185 0
-184 -186 0
-184 -187 0
-184 -188 0
-184 -189 0
-185 -186 0
-185 -187 0
-185 -188 0
-185 -189 0
-186 -187 0
-186 -188 0
-186 -189 0
-187 -188 0
-187 -189 0
-188 -189 0
-181 0
192 193 194 195 196 197 198 199 0
-192 -193 0
-192 -194 0
-192 -195 0
-192 -196 0
-192 -197 0
-192 -198 0
-192 -199 0
-193 -194 0
-193 -195 0
-193 -196 0
-193 -197 0
-193 -198 0
-193 -199 0
-194 -195 0
-194 -196 0
-194 -197 0
-194 -198 0
-194 -199 0
-195 -196 0
-195 -197 0
-195 -198 0
-195 -199 0
-196 -197 0
-196 -198 0
-196 -199 0
-197 -198 0
-197 -199 0
-198 -199 0
-191 0
202 203 204 205 206 207 208 209 0
-202 -203 0
-202 -204 0
-202 -205 0
-202 -206 0
-202 -207 0
-202 -208 0
-202 -209 0
-203 -204 0
-203 -205 0
-203 -206 0
-203 -207 0
-203 -208 0
-203 -209 0
-204 -205 0
-204 -206 0
-204 -207 0
-204 -208 0
-204 -209 0
-205 -206 0
-205 -207 0
-205 -208 0
-205 -209 0
-206 -207 0
-206 -208 0
-206 -209 0
-207 -208 0
-207 -209 0
-208 -209 0
-201 0
32 33 34 35 36 37 38 39 0
-32 -33 0
-32 -34 0
-32 -35 0
-32 -36 0
-32 -37 0
-32 -38 0
-32 -39 0
-33 -34 0
-33 -35 0
-33 -36 0
-33 -37 0
-33 -38 0
-33 -39 0
-34 -35 0
-34 -36 0
-34 -37 0
-34 -38 0
-34 -39 0
-35 -36 0
-35 -37 0
-35 -38 0
-35 -39 0
-36 -37 0
-36 -38 0
-36 -39 0
-37 -38 0
-37 -39 0
-38 -39 0
-31 0
82 83 84 85 86 87 88 89 0
-82 -83 0
-82 -84 0
-82 -85 0
-82 -86 0
-82 -87 0
-82 -88 0
-82 -89 0
-83 -84 0
-83 -85 0
-83 -86 0
-83 -87 0
-83 -88 0
-83 -89 0
-84 -85 0
-84 -86 0
-84 -87 0
-84 -88 0
-84 -89 0
-85 -86 0
-85 -87 0
-85 -88 0
-85 -89 0
-86 -87 0
-86 -88 0
-86 -89 0
-87 -88 0
-87 -89 0
-88 -89 0
-81 0
132 133 134 135 136 137 138 139 0
-132 -133 0
-132 -134 0
-132 -135 0
-132 -136 0
-132 -137 0
-132 -138 0
-132 -139 0
-133 -134 0
-133 -135 0
-133 -136 0
-133 -137 0
-133 -138 0
-133 -139 0
-134 -135 0
-134 -136 0
-134 -137 0
-134 -138 0
-134 -139 0
-135 -136 0
-135 -137 0
-135 -138 0
-135 -139 0
-136 -137 0
-136 -138 0
-136 -139 0
-137 -138 0
-137 -139 0
-138 -139 0
-131 0
182 183 184 185 186 187 188 189 0
-182 -183 0
-182 -184 0
-182 -185 0
-182 -186 0
-182 -187 0
-182 -188 0
-182 -189 0
-183 -184 0
-183 -185 0
-183 -186 0
-183 -187 0
-183 -188 0
-183 -189 0
-184 -185 0
-184 -186 0
-184 -187 0
-184 -188 0
-184 -189 0
-185 -186 0
-185 -187 0
-185 -188 0
-185 -189 0
-186 -187 0
-186 -188 0
-186 -189 0
-187 -188 0
-187 -189 0
-188 -189 0
-181 0
232 233 234 235 236 237 238 239 0
-232 -233 0
-232 -234 0
-232 -235 0
-232 -236 0
-232 -237 0
-232 -238 0
-232 -239 0
-233 -234 0
-233 -235 0
-233 -236 0
-233 -237 0
-233 -238 0
-233 -239 0
-234 -235 0
-234 -236 0
-234 -237 0
-234 -238 0
-234 -239 0
-235 -236 0
-235 -237 0
-235 -238 0
-235 -239 0
-236 -237 0
-236 -238 0
-236 -239 0
-237 -238 0
-237 -239 0
-238 -239 0
-231 0
-64 77 0
-64 86 0
-64 99 0
-64 108 0
62 64 62 0
73 77 74 0
84 86 85 0
95 99 96 0
106 108 107 0
-164 177 0
-164 186 0
-164 199 0
-164 208 0
162 164 162 0
173 177 174 0
184 186 185 0
195 199 196 0
206 208 207 0
-34 87 0
-34 136 0
-34 189 0
-34 238 0
32 34 32 0
83 87 84 0
134 136 135 0
185 189 186 0
236 238 237 0
-62 73 74 0
-62 84 85 0
-62 95 96 0
-62 106 107 0
-162 173 174 0
-162 184 185 0
-162 195 196 0
-162 206 207 0
-32 83 84 0
-32 134 135 0
-32 185 186 0
-32 236 237 0
-62 -73 -84 -95 -106 -162 -173 -184 -195 -206 0
-62 -73 -84 -95 -106 -32 -83 -134 -185 -236 0
-162 -173 -184 -195 -206 -32 -83 -134 -185 -236 0
-64 -77 -86 -99 -108 -164 -177 -186 -199 -208 0
-64 -77 -86 -99 -108 -34 -87 -136 -189 -238 0
-164 -177 -186 -199 -208 -34 -87 -136 -189 -238 0
-62 -74 -85 -96 -107 -162 -174 -185 -196 -207 0
-62 -74 -85 -96 -107 -32 -84 -135 -186 -237 0
-162 -174 -185 -196 -207 -32 -84 -135 -186 -237 0
